c Random generated cnf formula, satisfiable: true
p cnf 10 50
-6 -5 9 0
-4 -2 -6 0
-2 5 10 0
-2 7 -8 0
-5 3 -6 0
3 -7 4 0
-6 -5 3 0
-4 -6 10 0
-5 1 4 0
-10 8 -4 0
-10 -2 -6 0
1 8 5 0
3 -9 7 0
-9 5 -6 0
8 -1 7 0
-6 -10 7 0
-6 4 3 0
8 6 3 0
2 -4 -1 0
7 8 -10 0
2 4 10 0
-2 -6 1 0
6 -4 -2 0
10 4 -5 0
8 9 -2 0
1 -8 -4 0
-6 -8 -2 0
2 -8 6 0
7 -2 8 0
-9 1 10 0
5 9 7 0
-4 5 8 0
5 -6 2 0
7 -5 2 0
7 -10 8 0
-3 9 6 0
-1 -2 -8 0
-2 5 8 0
2 -5 9 0
8 2 -3 0
3 4 -5 0
-1 10 6 0
1 8 -5 0
-6 -2 8 0
3 1 6 0
-3 5 -6 0
-8 -5 -3 0
-1 -6 -4 0
5 6 -9 0
-9 -8 -2 0
